tsp_instances/TSP20/instance32.tsp
NODE_COORD_SECTION
0 79 175
1 106 0
2 169 42
3 131 180
4 121 199
5 122 4
6 20 50
7 57 21
8 2 192
9 151 87
10 23 50
11 48 28
12 134 145
13 71 177
14 131 187
15 190 151
16 184 13
17 158 161
18 147 57
19 151 49
