tsp_instances/TSP20/instance32.opt.tour
TOUR_SECTION
1
5
15
4
13
18
16
10
19
20
3
17
6
2
8
12
11
7
9
14
-1